\ This file has been generated by DOcplex
\ ENCODING=ISO-8859-1
\Problem name: random_problem.lp

Minimize
 obj: - 590 x0 - 295 x1 + 40 x2 + 20 x3 - 104 x4 - 52 x5 - 236 x6 - 118 x7
      + 42 x8 + 21 x9 + 230 x10 + 115 x11 - 88 x12 - 44 x13 + 104 x14 + 52 x15 +
      [ 392 x0^2 + 392 x0*x1 + 768 x0*x2 + 384 x0*x3 + 720 x0*x4 + 360 x0*x5
      + 352 x0*x6 + 176 x0*x7 + 608 x0*x8 + 304 x0*x9 + 608 x0*x10 + 304 x0*x11
      + 656 x0*x12 + 328 x0*x13 + 880 x0*x14 + 440 x0*x15 + 98 x1^2 + 384 x1*x2
      + 192 x1*x3 + 360 x1*x4 + 180 x1*x5 + 176 x1*x6 + 88 x1*x7 + 304 x1*x8
      + 152 x1*x9 + 304 x1*x10 + 152 x1*x11 + 328 x1*x12 + 164 x1*x13
      + 440 x1*x14 + 220 x1*x15 + 984 x2^2 + 984 x2*x3 + 1424 x2*x4 + 712 x2*x5
      + 1840 x2*x6 + 920 x2*x7 + 1616 x2*x8 + 808 x2*x9 + 1072 x2*x10
      + 536 x2*x11 + 864 x2*x12 + 432 x2*x13 + 1248 x2*x14 + 624 x2*x15
      + 246 x3^2 + 712 x3*x4 + 356 x3*x5 + 920 x3*x6 + 460 x3*x7 + 808 x3*x8
      + 404 x3*x9 + 536 x3*x10 + 268 x3*x11 + 432 x3*x12 + 216 x3*x13
      + 624 x3*x14 + 312 x3*x15 + 2608 x4^2 + 2608 x4*x5 + 560 x4*x6 + 280 x4*x7
      + 1648 x4*x8 + 824 x4*x9 + 672 x4*x10 + 336 x4*x11 + 1152 x4*x12
      + 576 x4*x13 + 4656 x4*x14 + 2328 x4*x15 + 652 x5^2 + 280 x5*x6
      + 140 x5*x7 + 824 x5*x8 + 412 x5*x9 + 336 x5*x10 + 168 x5*x11 + 576 x5*x12
      + 288 x5*x13 + 2328 x5*x14 + 1164 x5*x15 + 2448 x6^2 + 2448 x6*x7
      + 1808 x6*x8 + 904 x6*x9 + 1504 x6*x10 + 752 x6*x11 + 656 x6*x12
      + 328 x6*x13 + 144 x6*x14 + 72 x6*x15 + 612 x7^2 + 904 x7*x8 + 452 x7*x9
      + 752 x7*x10 + 376 x7*x11 + 328 x7*x12 + 164 x7*x13 + 72 x7*x14
      + 36 x7*x15 + 1016 x8^2 + 1016 x8*x9 + 1296 x8*x10 + 648 x8*x11
      + 688 x8*x12 + 344 x8*x13 + 1408 x8*x14 + 704 x8*x15 + 254 x9^2
      + 648 x9*x10 + 324 x9*x11 + 344 x9*x12 + 172 x9*x13 + 704 x9*x14
      + 352 x9*x15 + 1000 x10^2 + 1000 x10*x11 + 768 x10*x12 + 384 x10*x13
      + 912 x10*x14 + 456 x10*x15 + 250 x11^2 + 384 x11*x12 + 192 x11*x13
      + 456 x11*x14 + 228 x11*x15 + 472 x12^2 + 472 x12*x13 + 1296 x12*x14
      + 648 x12*x15 + 118 x13^2 + 648 x13*x14 + 324 x13*x15 + 2416 x14^2
      + 2416 x14*x15 + 604 x15^2 ]/2
Subject To
 c0: 2 x0 + x1 + 2 x2 + x3 + 2 x4 + x5 + 2 x6 + x7 + 2 x8 + x9 + 2 x10 + x11
     + 2 x12 + x13 + 2 x14 + x15 = 3

Bounds
 0 <= x0 <= 1
 0 <= x1 <= 1
 0 <= x2 <= 1
 0 <= x3 <= 1
 0 <= x4 <= 1
 0 <= x5 <= 1
 0 <= x6 <= 1
 0 <= x7 <= 1
 0 <= x8 <= 1
 0 <= x9 <= 1
 0 <= x10 <= 1
 0 <= x11 <= 1
 0 <= x12 <= 1
 0 <= x13 <= 1
 0 <= x14 <= 1
 0 <= x15 <= 1

Binaries
 x0 x1 x2 x3 x4 x5 x6 x7 x8 x9 x10 x11 x12 x13 x14 x15
End
